NAME : rand294446
COMMENT: random generated with id 294446
TYPE : TSP
DIMENSION : 6
EDGE_WEIGHT_TYPE : EUC_2D
NODE_COORD_SECTION
1 4.873869 2.254088
2 2.700202 0.147498
3 2.065965 3.172701
4 3.645087 3.230891
5 0.036730 3.711724
6 3.779411 3.293627
EOF
